language ESSENCE' 1.0

letting sched_ExplicitR17R3R3_PartitionAsSet_ExplicitR3_Explicit be
        [[[1, 2; int(1..2)], [3, 4; int(1..2)]; int(1..2)], [[1, 3; int(1..2)], [2, 4; int(1..2)]; int(1..2)],
         [[1, 4; int(1..2)], [2, 3; int(1..2)]; int(1..2)];
             int(1..3)]
$ Visualisation for sched_ExplicitR17R3R3_PartitionAsSet_ExplicitR3_Explicit
$ 1 2
$ 3 4
$ 
$ 1 3
$ 2 4
$ 
$ 1 4
$ 2 3
$ 

